
Gurobi 11.0.0 (linux64) logging started Fri Apr 12 14:10:03 2024

Set parameter LogFile to value "/lustre1/scratch/348/vsc34888/JointResearch/05.Models/06.Benchmarking/K.Investments_per_hour/RTS24_ByStages_nc100/openStarNet_RTS24_ByStages_nc100.log"
Set parameter Method to value 2
Set parameter MIPFocus to value 1
Set parameter Presolve to value 2
Set parameter RINS to value 100
Set parameter MIPGap to value 0.01
Set parameter Threads to value 36
Set parameter TimeLimit to value 259200
Set parameter IterationLimit to value 760000000
Gurobi Optimizer version 11.0.0 build v11.0.0rc2 (linux64 - "Rocky Linux 8.8 (Green Obsidian)")

CPU model: Intel(R) Xeon(R) Gold 6240 CPU @ 2.60GHz, instruction set [SSE2|AVX|AVX2|AVX512]
Thread count: 36 physical cores, 36 logical processors, using up to 36 threads

Optimize a model with 38903 rows, 23510 columns and 104539 nonzeros
Model fingerprint: 0xdbc9ee47
Variable types: 23480 continuous, 30 integer (30 binary)
Coefficient statistics:
  Matrix range     [3e-02, 4e+02]
  Objective range  [1e+00, 1e+00]
  Bounds range     [4e-04, 3e+00]
  RHS range        [4e-04, 3e+00]
Presolve removed 20868 rows and 11103 columns
Presolve time: 0.15s
Presolved: 18035 rows, 12407 columns, 63612 nonzeros
Variable types: 12377 continuous, 30 integer (30 binary)
Found heuristic solution: objective 299.5721222
Root relaxation presolved: 18035 rows, 12407 columns, 63612 nonzeros

Root barrier log...

Ordering time: 0.01s

Barrier statistics:
 Dense cols : 30
 AA' NZ     : 1.334e+05
 Factor NZ  : 3.476e+05 (roughly 15 MB of memory)
 Factor Ops : 7.402e+06 (less than 1 second per iteration)
 Threads    : 36

                  Objective                Residual
Iter       Primal          Dual         Primal    Dual     Compl     Time
   0   8.19451142e+05 -4.76420910e+07  7.09e+00 1.13e+02  3.72e+03     0s
   1   1.41705031e+05 -1.40395611e+07  1.02e+00 2.44e-09  5.62e+02     0s
   2   4.63435446e+04 -2.20070441e+06  1.75e-01 1.03e-09  7.04e+01     0s
   3   1.97999097e+04 -3.18897195e+05  3.82e-03 4.90e-11  8.93e+00     0s
   4   5.41817265e+03 -2.84659417e+04  3.13e-04 3.13e-12  8.89e-01     0s
   5   7.95943901e+02 -6.05395312e+03  1.31e-05 9.09e-13  1.80e-01     0s
   6   5.26086836e+02 -1.78838238e+03  2.16e-06 4.55e-13  6.07e-02     0s
   7   3.99217176e+02 -5.43147210e+02  1.00e-06 9.09e-13  2.47e-02     0s
   8   2.84322390e+02 -2.65692558e+00  3.91e-07 4.55e-13  7.53e-03     0s
   9   2.46116591e+02  8.69103553e+01  2.33e-07 4.55e-13  4.18e-03     0s
  10   2.28411351e+02  1.37044487e+02  1.65e-07 4.55e-13  2.40e-03     0s
  11   2.10635531e+02  1.63362668e+02  9.35e-08 4.55e-13  1.24e-03     0s
  12   2.00952979e+02  1.74497447e+02  5.50e-08 9.09e-13  6.94e-04     0s
  13   1.95524291e+02  1.78084161e+02  3.40e-08 9.09e-13  4.58e-04     1s
  14   1.92703998e+02  1.81450557e+02  2.18e-08 4.55e-13  2.95e-04     1s
  15   1.90791058e+02  1.83892383e+02  1.41e-08 4.55e-13  1.81e-04     1s
  16   1.89383865e+02  1.85303368e+02  8.25e-09 4.55e-13  1.07e-04     1s
  17   1.88725989e+02  1.85767241e+02  5.70e-09 4.55e-13  7.76e-05     1s
  18   1.87951355e+02  1.86527018e+02  2.56e-09 9.09e-13  3.74e-05     1s
  19   1.87798975e+02  1.86846886e+02  1.92e-09 4.55e-13  2.50e-05     1s
  20   1.87531860e+02  1.87103645e+02  9.09e-10 4.55e-13  1.12e-05     1s
  21   1.87408995e+02  1.87251077e+02  4.85e-10 9.09e-13  4.14e-06     1s
  22   1.87340557e+02  1.87271115e+02  3.27e-10 4.55e-13  1.82e-06     1s
  23   1.87336515e+02  1.87271594e+02  2.96e-10 4.55e-13  1.70e-06     1s
  24   1.87315041e+02  1.87280298e+02  2.16e-10 4.55e-13  9.12e-07     1s
  25   1.87306179e+02  1.87283742e+02  2.17e-10 4.55e-13  5.89e-07     1s
  26   1.87298348e+02  1.87286757e+02  2.70e-10 4.55e-13  3.04e-07     1s
  27   1.87292611e+02  1.87290616e+02  3.99e-09 4.55e-13  5.24e-08     1s
  28   1.87291926e+02  1.87291783e+02  9.98e-10 9.09e-13  3.75e-09     1s
  29   1.87291914e+02  1.87291913e+02  1.29e-09 9.09e-13  2.75e-11     1s

Barrier solved model in 29 iterations and 0.67 seconds (0.54 work units)
Optimal objective 1.87291914e+02


Root relaxation: objective 1.872919e+02, 2584 iterations, 0.49 seconds (0.33 work units)

    Nodes    |    Current Node    |     Objective Bounds      |     Work
 Expl Unexpl |  Obj  Depth IntInf | Incumbent    BestBd   Gap | It/Node Time

     0     0  187.29191    0   20  299.57212  187.29191  37.5%     -    1s
H    0     0                     269.4325882  189.90182  29.5%     -    1s
     0     0  190.04983    0   19  269.43259  190.04983  29.5%     -    1s
     0     0  190.04983    0   19  269.43259  190.04983  29.5%     -    2s
     0     0  190.33239    0   15  269.43259  190.33239  29.4%     -    2s
H    0     0                     252.6496944  190.33239  24.7%     -    2s
     0     0  190.34320    0   13  252.64969  190.34320  24.7%     -    3s
     0     0  190.34340    0   13  252.64969  190.34340  24.7%     -    3s
     0     0  190.50834    0   16  252.64969  190.50834  24.6%     -    3s
     0     0  190.54749    0   15  252.64969  190.54749  24.6%     -    3s
     0     0  190.55209    0   15  252.64969  190.55209  24.6%     -    3s
     0     0  190.55528    0   14  252.64969  190.55528  24.6%     -    3s
     0     0  190.55965    0   15  252.64969  190.55965  24.6%     -    3s
     0     0  190.55965    0   15  252.64969  190.55965  24.6%     -    3s
     0     0  190.63487    0   15  252.64969  190.63487  24.5%     -    4s
     0     0  190.72643    0   16  252.64969  190.72643  24.5%     -    4s
     0     0  190.72835    0   16  252.64969  190.72835  24.5%     -    4s
     0     0  190.72842    0   16  252.64969  190.72842  24.5%     -    4s
     0     0  190.75074    0   13  252.64969  190.75074  24.5%     -    6s
H    0     0                     244.6343013  190.75074  22.0%     -    7s
H    0     0                     216.8263085  190.75074  12.0%     -   25s
     0     2  190.75074    0   13  216.82631  190.75074  12.0%     -   26s
    87   109  193.79229    7   15  216.82631  193.79229  10.6%   629   57s
H   88   109                     215.8705817  193.81157  10.2%   621   57s
H   91   109                     215.6212886  193.81157  10.1%   615   57s
H  109   109                     215.5586815  193.81157  10.1%   570   57s
   507   309     cutoff   12       215.55868  194.04145  10.0%   504   60s
   900   380     cutoff   10       215.55868  194.70229  9.68%   480  101s
H  906   380                     215.5160065  194.70229  9.66%   481  101s
   958   393  208.64397   11   12  215.51601  194.70229  9.66%   483  113s
  1280   446  211.73210   10   13  215.51601  194.70229  9.66%   475  115s
  2036   552  210.68669   12   11  215.51601  198.53679  7.88%   452  121s
  2987   648     cutoff   15       215.51601  201.95649  6.29%   423  125s
  3197   652  207.39506   12   11  215.51601  201.98690  6.28%   420  163s
  3726   747     cutoff   16       215.51601  206.81365  4.04%   411  165s
  6385  1041  215.19159   18    4  215.51601  209.84114  2.63%   348  191s
  8984  1021  215.34582   13    8  215.51601  211.62981  1.80%   308  214s
  9683   901  214.34596   13    9  215.51601  211.91664  1.67%   299  235s
 10557   558  214.68589   15    7  215.51601  212.48342  1.41%   289  248s

Cutting planes:
  Implied bound: 77
  MIR: 630
  Relax-and-lift: 57

Explored 12784 nodes (3376169 simplex iterations) in 249.52 seconds (327.36 work units)
Thread count was 36 (of 36 available processors)

Solution count 9: 215.516 215.559 215.621 ... 299.572

Optimal solution found (tolerance 1.00e-02)
Best objective 2.155160065143e+02, best bound 2.142967748858e+02, gap 0.5657%

Gurobi 11.0.0 (linux64) logging started Fri Apr 12 14:14:18 2024

Set parameter LogFile to value "/lustre1/scratch/348/vsc34888/JointResearch/05.Models/06.Benchmarking/K.Investments_per_hour/RTS24_ByStages_nc100/openStarNet_RTS24_ByStages_nc100.log"
Set parameter Method to value 2
Set parameter MIPFocus to value 1
Set parameter Presolve to value 2
Set parameter RINS to value 100
Set parameter MIPGap to value 0.01
Set parameter Threads to value 36
Set parameter TimeLimit to value 259200
Set parameter IterationLimit to value 760000000
Gurobi Optimizer version 11.0.0 build v11.0.0rc2 (linux64 - "Rocky Linux 8.8 (Green Obsidian)")

CPU model: Intel(R) Xeon(R) Gold 6240 CPU @ 2.60GHz, instruction set [SSE2|AVX|AVX2|AVX512]
Thread count: 36 physical cores, 36 logical processors, using up to 36 threads

Optimize a model with 38903 rows, 23480 columns and 92509 nonzeros
Model fingerprint: 0x76b06dfa
Coefficient statistics:
  Matrix range     [3e-02, 4e+02]
  Objective range  [1e+00, 1e+00]
  Bounds range     [4e-04, 3e+00]
  RHS range        [4e-04, 4e+01]
Presolve removed 33168 rows and 13503 columns
Presolve time: 0.04s
Presolved: 5735 rows, 9977 columns, 25812 nonzeros

Ordering time: 0.00s

Barrier statistics:
 AA' NZ     : 1.491e+04
 Factor NZ  : 5.070e+04 (roughly 5 MB of memory)
 Factor Ops : 7.493e+05 (less than 1 second per iteration)
 Threads    : 1

                  Objective                Residual
Iter       Primal          Dual         Primal    Dual     Compl     Time
   0   2.51271017e+06 -4.18770636e+07  1.02e+01 4.58e+02  2.84e+04     0s
   1   1.98353127e+05 -3.09735373e+07  6.81e-01 2.02e-11  3.37e+03     0s
   2   6.30912520e+04 -8.65581859e+06  1.49e-01 2.82e-11  6.81e+02     0s
   3   3.40432050e+04 -2.12548949e+06  2.06e-02 2.25e-11  1.42e+02     0s
   4   2.41095499e+04 -2.75279690e+05  3.40e-06 1.58e-11  1.87e+01     0s
   5   1.09936843e+04 -7.58194709e+04  3.18e-07 7.06e-12  5.41e+00     0s
   6   3.69807427e+03 -7.28954535e+03  8.39e-08 3.64e-12  6.85e-01     0s
   7   5.20995300e+02 -1.48336162e+03  3.88e-10 2.73e-12  1.25e-01     0s
   8   3.80409531e+02 -2.86562433e+02  7.82e-11 1.82e-12  4.16e-02     0s
   9   2.83303947e+02  5.66839335e+01  2.32e-11 3.64e-12  1.41e-02     0s
  10   2.51373882e+02  1.48601237e+02  1.18e-11 3.64e-12  6.41e-03     0s
  11   2.30429907e+02  1.83256240e+02  4.62e-12 3.64e-12  2.94e-03     0s
  12   2.18819752e+02  2.06576154e+02  3.34e-12 3.64e-12  7.64e-04     0s
  13   2.17353464e+02  2.11296971e+02  5.78e-12 3.64e-12  3.78e-04     0s
  14   2.16163391e+02  2.14923500e+02  8.80e-12 3.64e-12  7.73e-05     0s
  15   2.15547805e+02  2.15471790e+02  5.71e-12 5.46e-12  4.74e-06     0s
  16   2.15516829e+02  2.15513325e+02  1.83e-10 3.64e-12  2.19e-07     0s
  17   2.15516040e+02  2.15515965e+02  8.37e-11 3.64e-12  4.64e-09     0s
  18   2.15516007e+02  2.15516007e+02  1.21e-11 1.82e-12  2.52e-14     0s

Barrier solved model in 18 iterations and 0.11 seconds (0.11 work units)
Optimal objective 2.15516007e+02

Crossover log...

    1150 DPushes remaining with DInf 0.0000000e+00                 0s
       0 DPushes remaining with DInf 0.0000000e+00                 0s

     323 PPushes remaining with PInf 0.0000000e+00                 0s
       0 PPushes remaining with PInf 0.0000000e+00                 0s

  Push phase complete: Pinf 0.0000000e+00, Dinf 1.0669371e-12      0s

Iteration    Objective       Primal Inf.    Dual Inf.      Time
     344    2.1551601e+02   0.000000e+00   0.000000e+00      0s

Use crossover to convert LP symmetric solution to basic solution...
Crossover log...

     193 PPushes remaining with PInf 0.0000000e+00                 0s
       0 PPushes remaining with PInf 0.0000000e+00                 0s

  Push phase complete: Pinf 0.0000000e+00, Dinf 1.3743233e-12      0s

Iteration    Objective       Primal Inf.    Dual Inf.      Time
     540    2.1551601e+02   0.000000e+00   0.000000e+00      0s

Solved in 540 iterations and 0.15 seconds (0.14 work units)
Optimal objective  2.155160065e+02
